# my first orca computation of water
! B3LYP def2-SVP Opt
*xyz 0 1
O 0.0 0.0 0.0
H 0.0 0.8 0.6
H 0.0 -0.8 0.6
*
